18582,2574973979
33
0 20 43 53 0 
0 29 74 62 0 
0 88 94 49 0 
0 97 14 17 0 
0 4 32 21 0 
0 99 31 87 0 
0 8 12 13 0 
0 2 92 45 0 
0 55 30 33 0 
0 73 46 60 0 
0 82 15 79 0 
0 72 59 34 0 
0 85 91 47 0 
0 52 71 57 0 
0 24 69 93 0 
0 75 80 63 0 
0 76 7 56 0 
0 81 23 37 0 
0 38 66 35 0 
0 83 58 65 0 
0 19 41 3 0 
0 16 54 77 0 
0 98 27 67 0 
0 68 42 64 0 
0 89 10 44 0 
0 96 25 84 0 
0 6 22 28 0 
0 95 61 86 0 
0 50 39 11 0 
0 18 40 51 0 
0 70 48 26 0 
0 9 90 36 0 
0 5 1 78 0 